10	5
0	4	3	1	9	2
1	2	8	10
2	2	7	5
3	1	4
4	1	7
5	0
6	1	11
7	1	11
8	1	11
9	1	11
10	1	11
11	0
0	0	0	0	0	0	0
1	6	1	0	4	4	1
2	9	1	1	5	0	2
3	10	1	2	3	5	3
4	1	4	2	0	0	2
5	6	3	5	5	4	5
6	7	2	0	2	3	0
7	3	3	4	0	2	4
8	10	0	5	0	0	5
9	2	0	1	5	4	2
10	9	0	4	4	2	5
11	0	0	0	0	0	0
4	5	5	5	5
